# Solution for model MISC03
# Objective value = 3360
COL001 0
COL002 0
COL003 0
COL004 1
COL005 0
COL006 0
COL007 0
COL008 0
COL009 0
COL010 0
COL011 0
COL012 0
COL013 0
COL014 0
COL015 0
COL016 0
COL017 0
COL018 0
COL019 0
COL020 0
COL021 0
COL022 0
COL023 0
COL024 0
COL025 0
COL026 0
COL027 0
COL028 0
COL029 0
COL030 0
COL031 0
COL032 0
COL033 0
COL034 0
COL035 0
COL036 0
COL037 0
COL038 0
COL039 0
COL040 1
COL041 0
COL042 0
COL043 0
COL044 0
COL045 0
COL046 0
COL047 0
COL048 0
COL049 0
COL050 0
COL051 0
COL052 0
COL053 0
COL054 0
COL055 0
COL056 0
COL057 0
COL058 0
COL059 0
COL060 0
COL061 0
COL062 0
COL063 1
COL064 0
COL065 0
COL066 0
COL067 0
COL068 0
COL069 0
COL070 0
COL071 0
COL072 0
COL073 0
COL074 0
COL075 0
COL076 0
COL077 1
COL078 0
COL079 0
COL080 0
COL081 0
COL082 0
COL083 0
COL084 0
COL085 0
COL086 0
COL087 0
COL088 0
COL089 0
COL090 0
COL091 0
COL092 0
COL093 0
COL094 0
COL095 0
COL096 0
COL097 0
COL098 0
COL099 0
COL100 0
COL101 1
COL102 0
COL103 0
COL104 0
COL105 0
COL106 0
COL107 0
COL108 0
COL109 0
COL110 0
COL111 0
COL112 0
COL113 0
COL114 0
COL115 0
COL116 1
COL117 0
COL118 0
COL119 0
COL120 0
COL121 0
COL122 0
COL123 0
COL124 0
COL125 0
COL126 0
COL127 1
COL128 0
COL129 0
COL130 0
COL131 0
COL132 0
COL133 0
COL134 0
COL135 1
COL136 0
COL137 0
COL138 0
COL139 0
COL140 0
COL141 0
COL142 0
COL143 0
COL144 0
COL145 0
COL146 0
COL147 0
COL148 1
COL149 1
COL150 0
COL151 1
COL152 0
COL153 1
COL154 0
COL155 1
COL156 1
COL157 0
COL158 1
COL159 0
COL160 3360
